proyfinal/src/viki/013/experimentInOfficeAgust.take6.output/495d86b9-ff4e-464c-b1be-a1ca51959c96.als.dat
{'cnf.clauses': '118081',
 'cnf.totvars': '69608',
 'conflict literals': '61',
 'conflicts': '24',
 'decisions': '3075',
 'memused.mb': '17.54',
 'outcome': 'UNSAT',
 'propagations': '42148',
 'restarts': '1',
 'solver.msecs': 30,
 'task.msecs': 70}
