proyfinal/src/viki/013/experimentInOfficeAgust.take6.output/495d86b9-ff4e-464c-b1be-a1ca51959c96.als.out
Reading from standard input... Use '--help' for help.
============================[ Problem Statistics ]=============================
|                                                                             |
|  Number of variables:         69608                                         |
|  Number of clauses:          118081                                         |
|  Parse time:                   0.02 s                                       |
|                                                                             |
============================[ Search Statistics ]==============================
| Conflicts |          ORIGINAL         |          LEARNT          | Progress |
|           |    Vars  Clauses Literals |    Limit  Clauses Lit/Cl |          |
===============================================================================
===============================================================================
restarts              : 1
conflicts             : 24             (792 /sec)
decisions             : 3075           (0.00 % random) (101442 /sec)
propagations          : 42148          (1390427 /sec)
conflict literals     : 61             (8.96 % deleted)
Memory used           : 17.54 MB
CPU time              : 0.030313 s

UNSATISFIABLE
